Route #1: 1 28 71 4 46 35 53 72 51 6 33 1 
Route #2: 1 1 73 68 34 7 10 12 17 32 44 49 1 
Route #3: 1 23 63 62 74 48 75 27 37 60 69 61 64 1 
Route #4: 1 2 30 21 29 5 70 15 13 52 26 1 
Route #5: 1 56 24 40 9 25 31 65 8 1 
Route #6: 1 42 22 36 47 45 57 54 14 67 3 1 
Route #7: 1 43 41 16 50 18 55 39 58 38 19 1 
Route #8: 1 20 59 66 11 1 

Cost 1369.37
Time 1.1496


 * Another infos *

 Iterations: 76 Time: 1.1496 sec - 0.0192 min - 0.0003 horas
0.0000 h 0.0192 min
Problem dimension: 76
